p tw 62 66
1 2
2 13
3 4
4 5
5 6
6 7
6 21
7 8
8 9
9 10
10 11
10 15
11 12
12 14
12 15
13 24
14 58
15 16
16 17
17 18
18 19
19 20
20 58
21 22
22 23
23 25
23 31
24 35
25 26
26 27
27 28
28 29
29 30
30 58
31 32
32 33
33 34
34 36
34 43
35 46
36 37
37 38
38 39
39 40
40 41
41 42
42 58
43 44
44 45
45 47
46 57
47 48
48 49
49 50
50 51
51 52
52 53
53 54
54 55
55 56
56 58
57 60
58 59
60 61
61 62
62 3
